Version identifier: 20.1.0.0 | 2020-11-10 | 9bedb6d68
Tried aggregator 2 times.
MIP Presolve eliminated 1321 rows and 709 columns.
MIP Presolve modified 3206 coefficients.
Aggregator did 147 substitutions.
Reduced MIP has 1881 rows, 1499 columns, and 6202 nonzeros.
Reduced MIP has 331 binaries, 1168 generals, 0 SOSs, and 0 indicators.
Presolve time = 0.02 sec. (7.64 ticks)
Found incumbent of value 4077.000000 after 0.03 sec. (15.31 ticks)
Probing fixed 40 vars, tightened 386 bounds.
Probing time = 0.00 sec. (1.29 ticks)
Tried aggregator 2 times.
Detecting symmetries...
MIP Presolve eliminated 820 rows and 76 columns.
MIP Presolve modified 179 coefficients.
Aggregator did 26 substitutions.
Reduced MIP has 1035 rows, 1397 columns, and 3464 nonzeros.
Reduced MIP has 419 binaries, 978 generals, 0 SOSs, and 0 indicators.
Presolve time = 0.01 sec. (5.03 ticks)
Probing time = 0.00 sec. (0.33 ticks)
Clique table members: 85.
MIP emphasis: balance optimality and feasibility.
MIP search method: dynamic search.
Parallel mode: deterministic, using up to 24 threads.
Root relaxation solution time = 0.01 sec. (3.16 ticks)

        Nodes                                         Cuts/
   Node  Left     Objective  IInf  Best Integer    Best Bound    ItCnt     Gap

*     0+    0                         4077.0000        0.0000           100.00%
      0     0        0.0000    48     4077.0000        0.0000      349  100.00%
      0     0        0.0000    45     4077.0000     Cuts: 130      454  100.00%
*     0+    0                           38.0000        0.0000           100.00%
      0     0        0.0000   145       38.0000      Cuts: 90      540  100.00%
      0     0        0.0000    94       38.0000      Cuts: 33      577  100.00%
      0     0        0.1628   159       38.0000      Cuts: 79      820   99.57%
*     0+    0                           16.0000        0.1628            98.98%
      0     0        cutoff             16.0000       16.0000     1009    0.00%
Elapsed time = 1.53 sec. (96.79 ticks, tree = 0.01 MB, solutions = 3)

Implied bound cuts applied:  71
Flow cuts applied:  16
Mixed integer rounding cuts applied:  28
Zero-half cuts applied:  98
Lift and project cuts applied:  10
Gomory fractional cuts applied:  17

Root node processing (before b&c):
  Real time             =    1.53 sec. (96.91 ticks)
Parallel b&c, 24 threads:
  Real time             =    0.00 sec. (0.00 ticks)
  Sync time (average)   =    0.00 sec.
  Wait time (average)   =    0.00 sec.
                          ------------
Total (root+branch&cut) =    1.53 sec. (96.91 ticks)

Solution status = Optimal
Solution LB = 16
Solution UB = 16
Runtime = 1.53554 seconds
	Command being timed: "/home/min/git_repos/CS598MEBProject/CNT-ILP/build/cnt -s 2 ./output/k8_n20/simC_c1_k8_n20_u3_s3_del04.input-right.cnp"
	User time (seconds): 23.28
	System time (seconds): 0.11
	Percent of CPU this job got: 1478%
	Elapsed (wall clock) time (h:mm:ss or m:ss): 0:01.58
	Average shared text size (kbytes): 0
	Average unshared data size (kbytes): 0
	Average stack size (kbytes): 0
	Average total size (kbytes): 0
	Maximum resident set size (kbytes): 112072
	Average resident set size (kbytes): 0
	Major (requiring I/O) page faults: 0
	Minor (reclaiming a frame) page faults: 38048
	Voluntary context switches: 6465
	Involuntary context switches: 3515
	Swaps: 0
	File system inputs: 0
	File system outputs: 16
	Socket messages sent: 0
	Socket messages received: 0
	Signals delivered: 0
	Page size (bytes): 4096
	Exit status: 0
